language ESSENCE' 1.0
letting nrows be 4
letting ncols be 5

letting nrobots be 2
letting robot_pos be [[1, 2],
                      [2, 1]]

letting ntasks be 2
letting task_obj  be [1, 2]
letting task_dest be [[4, 4],
                      [3, 5]]

letting time_limit be 7

letting map be [[ 0, 1, 0, 0, 0],
                [ 2, 0, 0, 0, 0],
                [ 0, 0, 0, 0, 0],
                [ 0, 0, 0, 0, 0]]
